
Gurobi 9.5.0 (mac64[x86]) logging started Tue  2 Aug 11:47:44 2022

Set parameter LogFile to value "/Users/nikitabelyak/Dropbox (Aalto)/TSEP/Nordic_case_study/2022 data/optimisation_results/02_Aug_2022_11_47_44.log"
Set parameter Threads to value 6

Gurobi 9.5.0 (mac64[x86]) logging started Tue  2 Aug 11:47:48 2022

Set parameter LogFile to value "/Users/nikitabelyak/Dropbox (Aalto)/TSEP/Nordic_case_study/2022 data/optimisation_results/02_Aug_2022_11_47_44.log"

Gurobi 9.5.0 (mac64[x86]) logging started Tue  2 Aug 11:47:55 2022

Set parameter LogFile to value "/Users/nikitabelyak/Dropbox (Aalto)/TSEP/Nordic_case_study/2022 data/optimisation_results/02_Aug_2022_11_47_44.log"
Gurobi Optimizer version 9.5.0 build v9.5.0rc5 (mac64[x86])
Thread count: 6 physical cores, 12 logical processors, using up to 6 threads
Optimize a model with 28361 rows, 22055 columns and 83325 nonzeros
Model fingerprint: 0xff86da6b
Model has 60 quadratic objective terms
Variable types: 12790 continuous, 9265 integer (9265 binary)
Coefficient statistics:
  Matrix range     [3e-04, 7e+10]
  Objective range  [7e+00, 8e+03]
  QObjective range [3e-04, 2e-01]
  Bounds range     [2e-314, 9e+03]
  RHS range        [1e-03, 1e+10]
Warning: Model contains large matrix coefficient range
Warning: Model contains large rhs
         Consider reformulating model or setting NumericFocus parameter
         to avoid numerical issues.

User MIP start did not produce a new incumbent solution
User MIP start violates constraint R4167 by 2773.500000000

Presolve removed 8544 rows and 6284 columns
Presolve time: 0.65s
Presolved: 19817 rows, 15771 columns, 63313 nonzeros
Presolved model has 60 quadratic objective terms
Variable types: 8844 continuous, 6927 integer (6927 binary)

Root relaxation: objective 6.139557e+08, 6913 iterations, 0.33 seconds (0.49 work units)
Another try with MIP start

    Nodes    |    Current Node    |     Objective Bounds      |     Work
 Expl Unexpl |  Obj  Depth IntInf | Incumbent    BestBd   Gap | It/Node Time

     0     0 6.1317e+08    0  673          - 6.1317e+08      -     -    1s
     0     0 6.1303e+08    0  504          - 6.1303e+08      -     -    4s
     0     0 6.1303e+08    0  504          - 6.1303e+08      -     -    5s
     0     0 6.1296e+08    0  465          - 6.1296e+08      -     -    5s
     0     0 6.1296e+08    0  475          - 6.1296e+08      -     -    6s
     0     0 6.1296e+08    0  462          - 6.1296e+08      -     -    6s
     0     0 6.1296e+08    0  464          - 6.1296e+08      -     -    7s
     0     0 6.1295e+08    0  446          - 6.1295e+08      -     -    7s
     0     0 6.1295e+08    0  451          - 6.1295e+08      -     -    8s
     0     0 6.1294e+08    0  467          - 6.1294e+08      -     -    8s
     0     0 6.1294e+08    0  459          - 6.1294e+08      -     -    8s
     0     0 6.1290e+08    0  452          - 6.1290e+08      -     -    9s
     0     0 6.1290e+08    0  468          - 6.1290e+08      -     -    9s
     0     0 6.1223e+08    0  449          - 6.1223e+08      -     -   10s
     0     0 6.1223e+08    0  458          - 6.1223e+08      -     -   10s
     0     0 6.1223e+08    0  464          - 6.1223e+08      -     -   10s
     0     0 6.1218e+08    0  427          - 6.1218e+08      -     -   11s
     0     0 6.0324e+08    0  443          - 6.0324e+08      -     -   11s
     0     0 6.0324e+08    0  450          - 6.0324e+08      -     -   11s
     0     0 5.9425e+08    0  452          - 5.9425e+08      -     -   11s
     0     0 5.9425e+08    0  452          - 5.9425e+08      -     -   12s
     0     2 5.9425e+08    0  452          - 5.9425e+08      -     -   25s
